
342
1000
   799      1
   797      2
   796      1
   795      2
   793      1
   791      2
   790      1
   789      1
   788      1
   783      1
   782      1
   781      2
   778      1
   775      2
   774      1
   773      1
   772      1
   770      1
   768      2
   767      1
   763      1
   758      1
   757      1
   755      1
   754      1
   753      1
   752      1
   751      2
   749      2
   748      1
   746      1
   744      3
   742      2
   739      1
   737      1
   735      1
   733      1
   732      2
   731      2
   730      2
   727      1
   726      1
   721      1
   720      2
   717      1
   716      1
   714      2
   713      2
   710      2
   709      1
   708      1
   707      1
   706      1
   705      1
   701      1
   700      3
   698      1
   695      3
   694      1
   692      1
   689      1
   687      1
   686      1
   683      2
   681      1
   679      3
   678      1
   677      1
   675      1
   673      1
   671      3
   670      1
   667      2
   666      1
   665      1
   663      1
   662      1
   659      1
   657      1
   656      1
   655      1
   654      1
   653      2
   652      1
   651      2
   650      3
   649      1
   648      1
   646      1
   645      1
   642      1
   641      1
   639      1
   637      1
   636      2
   631      1
   628      3
   627      3
   625      1
   623      2
   622      2
   620      1
   618      1
   617      1
   615      1
   611      2
   608      1
   607      1
   606      1
   604      1
   603      3
   601      1
   599      1
   598      1
   597      2
   595      2
   594      2
   592      1
   589      1
   586      1
   585      2
   581      2
   580      1
   579      4
   577      1
   576      2
   574      5
   571      1
   570      1
   569      2
   567      3
   564      3
   562      1
   560      1
   559      3
   557      1
   554      1
   553      1
   552      1
   550      1
   546      2
   545      1
   540      3
   535      2
   534      1
   531      3
   530      4
   529      1
   528      3
   526      1
   525      2
   522      2
   521      1
   519      1
   517      1
   516      2
   515      1
   514      1
   513      1
   512      2
   511      1
   510      1
   509      2
   508      1
   507      1
   506      2
   505      2
   503      2
   502      1
   499      4
   497      1
   495      1
   494      3
   490      1
   489      1
   488      3
   487      1
   483      1
   482      1
   481      2
   479      1
   478      1
   477      1
   476      2
   473      1
   468      1
   466      1
   465      1
   464      1
   462      1
   461      1
   457      1
   456      1
   454      1
   453      1
   449      1
   447      2
   445      1
   442      1
   441      2
   439      1
   438      2
   437      1
   432      2
   430      1
   428      1
   427      2
   426      1
   423      1
   421      2
   420      3
   417      1
   416      1
   414      2
   410      2
   409      2
   408      1
   407      1
   401      1
   400      2
   399      2
   397      1
   396      2
   389      2
   387      1
   385      3
   384      2
   383      1
   378      2
   377      1
   376      1
   375      1
   371      1
   370      1
   369      1
   368      1
   366      1
   365      2
   363      1
   362      2
   358      2
   357      1
   356      1
   354      1
   352      1
   351      2
   346      1
   345      2
   344      3
   342      1
   341      2
   339      2
   338      1
   337      1
   335      1
   334      1
   332      1
   331      1
   327      1
   326      3
   324      2
   323      1
   322      2
   319      2
   318      2
   317      1
   315      2
   314      2
   313      1
   312      2
   311      1
   310      1
   308      2
   306      1
   303      2
   302      1
   301      1
   300      2
   299      1
   298      1
   297      3
   296      3
   295      1
   292      1
   290      4
   289      3
   288      2
   286      3
   284      2
   282      1
   281      1
   280      1
   279      1
   278      2
   277      1
   276      1
   275      1
   273      1
   272      1
   268      1
   267      2
   266      1
   265      2
   263      1
   262      3
   257      1
   256      2
   255      1
   254      1
   252      3
   251      1
   250      1
   249      1
   248      1
   247      1
   246      1
   245      1
   242      1
   241      1
   240      1
   239      1
   238      1
   237      2
   235      1
   232      1
   231      1
   228      1
   227      2
   223      2
   221      1
   220      1
   218      2
   217      1
   215      2
   214      1
   213      1
   211      1
   209      2
   206      1
   204      1
   203      2
   202      1




The initial LP solution: time=0.72


File: BPP_500_1000_0.2_0.8_4.txt  Instance No. 1
Wed Feb 25 13:44:08 2015

LP solution: lpval=252 lpbnd=252

1: 0:1 obj 1\\
2: 1:1 340:1 obj 1\\
1: 2:1 339:1 obj 1\\
1: 3:1 obj 1\\
1: 3:1 341:1 obj 1\\
1: 4:1 338:1 obj 1\\
2: 5:1 337:1 obj 1\\
1: 6:1 obj 1\\
1: 7:1 336:1 obj 1\\
1: 8:1 obj 1\\
2: 11:1 331:1 obj 1\\
1: 12:1 329:1 obj 1\\
2: 13:1 328:1 obj 1\\
1: 14:1 330:1 obj 1\\
1: 16:1 326:1 obj 1\\
1: 17:1 327:1 obj 1\\
1: 18:1 324:1 obj 1\\
1: 18:1 325:1 obj 1\\
1: 19:1 333:1 obj 1\\
1: 20:1 322:1 obj 1\\
1: 21:1 317:1 obj 1\\
1: 22:1 318:1 obj 1\\
1: 23:1 316:1 obj 1\\
1: 24:1 315:1 obj 1\\
1: 25:1 314:1 obj 1\\
1: 26:1 313:1 obj 1\\
1: 27:1 obj 1\\
1: 27:1 312:1 obj 1\\
1: 28:1 obj 1\\
1: 28:1 310:1 obj 1\\
1: 29:1 309:1 obj 1\\
1: 30:1 308:1 obj 1\\
2: 31:1 306:1 obj 1\\
1: 31:1 309:1 obj 1\\
1: 32:1 305:1 obj 1\\
1: 32:1 309:1 obj 1\\
1: 33:1 307:1 obj 1\\
1: 34:1 303:1 obj 1\\
1: 36:1 300:1 obj 1\\
1: 37:1 299:1 obj 1\\
1: 37:1 300:1 obj 1\\
1: 38:1 301:1 obj 1\\
1: 38:1 304:1 obj 1\\
2: 39:1 304:1 obj 1\\
1: 40:1 297:1 obj 1\\
1: 41:1 298:1 obj 1\\
1: 42:1 292:1 obj 1\\
1: 43:1 291:1 obj 1\\
1: 43:1 302:1 obj 1\\
1: 44:1 289:1 obj 1\\
1: 45:1 288:1 obj 1\\
2: 46:1 287:1 obj 1\\
1: 47:1 287:1 obj 1\\
1: 47:1 290:1 obj 1\\
2: 48:1 284:1 obj 1\\
1: 49:1 285:1 obj 1\\
1: 50:1 283:1 obj 1\\
1: 51:1 286:1 obj 1\\
1: 52:1 293:1 obj 1\\
1: 53:1 282:1 obj 1\\
1: 54:1 278:1 obj 1\\
2: 55:1 277:1 obj 1\\
1: 55:1 279:1 obj 1\\
1: 56:1 275:1 obj 1\\
2: 57:1 274:1 obj 1\\
1: 57:1 276:1 obj 1\\
1: 58:1 273:1 obj 1\\
1: 59:1 272:1 obj 1\\
1: 60:1 270:1 obj 1\\
1: 61:1 268:1 obj 1\\
1: 62:1 267:1 obj 1\\
1: 63:1 265:1 obj 1\\
1: 63:1 266:1 obj 1\\
1: 64:1 263:1 obj 1\\
1: 65:1 263:1 obj 1\\
2: 65:1 264:1 obj 1\\
1: 66:1 262:1 obj 1\\
1: 67:1 261:1 obj 1\\
1: 68:1 260:1 obj 1\\
1: 69:1 258:1 obj 1\\
3: 70:1 259:1 obj 1\\
1: 71:1 262:1 obj 1\\
1: 72:1 256:1 obj 1\\
1: 72:1 260:1 obj 1\\
1: 73:1 255:1 obj 1\\
1: 74:1 254:1 obj 1\\
1: 75:1 253:1 obj 1\\
1: 76:1 252:1 obj 1\\
1: 78:1 249:1 obj 1\\
1: 79:1 248:1 obj 1\\
1: 80:1 247:1 obj 1\\
1: 81:1 246:1 obj 1\\
2: 82:1 251:1 obj 1\\
1: 83:1 257:1 obj 1\\
2: 84:1 248:1 obj 1\\
1: 85:1 247:1 obj 1\\
1: 85:1 271:1 obj 1\\
1: 85:1 286:1 obj 1\\
1: 86:1 245:1 obj 1\\
1: 87:1 244:1 obj 1\\
1: 88:1 243:1 obj 1\\
1: 89:1 245:1 obj 1\\
1: 90:1 240:1 obj 1\\
1: 91:1 241:1 obj 1\\
1: 92:1 242:1 obj 1\\
1: 93:1 238:1 obj 1\\
2: 94:1 239:1 obj 1\\
1: 95:1 234:1 obj 1\\
1: 96:1 232:1 obj 1\\
2: 96:1 285:1 obj 1\\
1: 97:1 233:1 obj 1\\
1: 97:1 284:1 obj 1\\
1: 97:1 288:1 obj 1\\
1: 98:1 231:1 obj 1\\
1: 99:1 229:1 obj 1\\
1: 99:1 240:1 obj 1\\
2: 100:1 228:1 obj 1\\
1: 101:1 230:1 obj 1\\
1: 102:1 235:1 obj 1\\
1: 103:1 227:1 obj 1\\
1: 104:1 225:1 obj 1\\
2: 105:1 223:1 obj 1\\
1: 106:1 224:1 obj 1\\
1: 107:1 225:1 obj 1\\
1: 108:1 226:1 obj 1\\
1: 109:1 222:1 obj 1\\
1: 110:1 221:1 obj 1\\
1: 110:1 222:1 obj 1\\
1: 110:1 284:1 obj 1\\
1: 111:1 220:1 obj 1\\
1: 112:1 218:1 obj 1\\
2: 114:1 219:1 obj 1\\
1: 115:1 220:1 obj 1\\
1: 115:1 269:1 obj 1\\
2: 116:1 237:1 obj 1\\
1: 117:1 216:1 obj 1\\
1: 118:1 214:1 obj 1\\
1: 119:1 213:1 obj 1\\
1: 120:1 213:1 obj 1\\
1: 120:1 214:1 obj 1\\
1: 121:1 obj 1\\
1: 121:1 211:1 obj 1\\
1: 122:1 210:1 obj 1\\
2: 123:1 209:1 obj 1\\
2: 125:1 210:1 obj 1\\
1: 126:1 207:1 obj 1\\
1: 127:1 205:1 obj 1\\
1: 128:1 204:1 obj 1\\
2: 129:1 206:1 obj 1\\
2: 130:1 203:1 obj 1\\
1: 130:1 215:1 obj 1\\
2: 131:1 250:1 obj 1\\
1: 132:1 201:1 obj 1\\
1: 134:1 199:1 obj 1\\
1: 136:1 197:1 obj 1\\
1: 139:1 195:1 obj 1\\
1: 140:1 193:1 obj 1\\
1: 141:1 194:1 obj 1\\
1: 142:1 191:1 obj 1\\
1: 143:1 187:1 obj 1\\
1: 144:1 186:1 obj 1\\
1: 145:1 185:1 obj 1\\
1: 145:1 188:1 obj 1\\
1: 146:1 189:1 obj 1\\
1: 147:1 190:1 obj 1\\
1: 148:1 192:1 obj 1\\
2: 148:1 196:1 obj 1\\
1: 149:1 184:1 obj 1\\
1: 150:1 201:1 obj 1\\
1: 151:1 181:1 obj 1\\
1: 152:1 180:1 obj 1\\
1: 153:1 179:1 obj 1\\
1: 154:1 177:1 obj 1\\
1: 155:1 178:1 obj 1\\
1: 155:1 179:1 obj 1\\
1: 156:1 182:1 obj 1\\
1: 157:1 183:1 obj 1\\
1: 158:1 176:1 obj 1\\
2: 159:1 175:1 obj 1\\
1: 160:1 174:1 obj 1\\
1: 161:1 173:1 obj 1\\
1: 162:1 294:1 334:1 obj 1\\
2: 165:1 172:1 obj 1\\
1: 166:1 171:1 obj 1\\
1: 166:1 172:1 obj 1\\
1: 167:1 170:1 obj 1\\
1: 167:1 175:1 obj 1\\
1: 168:1 320:1 321:1 obj 1\\
2: 169:2 obj 1\\
1: 162:1 208:1 obj 1\\
1: 124:1 225:1 obj 1\\
1: 135:1 202:1 obj 1\\
1: 137:1 198:1 obj 1\\
1: 138:1 200:1 obj 1\\
1: 77:1 302:1 obj 1\\
1: 113:1 280:1 obj 1\\
1: 9:1 333:1 obj 1\\
1: 10:1 335:1 obj 1\\
1: 15:1 332:1 obj 1\\
1: 35:1 327:1 obj 1\\
1: 150:1 266:1 obj 1\\
1: 146:1 226:1 obj 1\\
1: 146:1 217:1 obj 1\\
1: 146:1 215:1 obj 1\\
1: 145:1 296:1 obj 1\\
1: 143:1 199:1 obj 1\\
1: 142:1 319:1 obj 1\\
1: 142:1 311:1 obj 1\\
1: 140:1 236:1 obj 1\\
1: 134:1 212:1 obj 1\\
1: 134:1 295:1 obj 1\\
1: 133:1 272:1 obj 1\\
1: 131:1 267:1 obj 1\\
1: 151:1 322:1 323:1 obj 1\\
1: 126:1 293:1 obj 1\\
3: 126:1 281:1 obj 1\\
1: 163:1 183:1 obj 1\\
2: 123:1 280:1 obj 1\\
1: 164:1 269:1 obj 1\\






File: BPP_500_1000_0.2_0.8_4.txt  Instance No. 1
Wed Feb 25 13:44:08 2015

LP0 Time: 0.72 IPTime: 0.72 The best integer solution (252):

1: 0:1 obj 1\\
2: 1:1 340:1 obj 1\\
1: 2:1 339:1 obj 1\\
1: 3:1 obj 1\\
1: 3:1 341:1 obj 1\\
1: 4:1 338:1 obj 1\\
2: 5:1 337:1 obj 1\\
1: 6:1 obj 1\\
1: 7:1 336:1 obj 1\\
1: 8:1 obj 1\\
2: 11:1 331:1 obj 1\\
1: 12:1 329:1 obj 1\\
2: 13:1 328:1 obj 1\\
1: 14:1 330:1 obj 1\\
1: 16:1 326:1 obj 1\\
1: 17:1 327:1 obj 1\\
1: 18:1 324:1 obj 1\\
1: 18:1 325:1 obj 1\\
1: 19:1 333:1 obj 1\\
1: 20:1 322:1 obj 1\\
1: 21:1 317:1 obj 1\\
1: 22:1 318:1 obj 1\\
1: 23:1 316:1 obj 1\\
1: 24:1 315:1 obj 1\\
1: 25:1 314:1 obj 1\\
1: 26:1 313:1 obj 1\\
1: 27:1 obj 1\\
1: 27:1 312:1 obj 1\\
1: 28:1 obj 1\\
1: 28:1 310:1 obj 1\\
1: 29:1 309:1 obj 1\\
1: 30:1 308:1 obj 1\\
2: 31:1 306:1 obj 1\\
1: 31:1 309:1 obj 1\\
1: 32:1 305:1 obj 1\\
1: 32:1 309:1 obj 1\\
1: 33:1 307:1 obj 1\\
1: 34:1 303:1 obj 1\\
1: 36:1 300:1 obj 1\\
1: 37:1 299:1 obj 1\\
1: 37:1 300:1 obj 1\\
1: 38:1 301:1 obj 1\\
1: 38:1 304:1 obj 1\\
2: 39:1 304:1 obj 1\\
1: 40:1 297:1 obj 1\\
1: 41:1 298:1 obj 1\\
1: 42:1 292:1 obj 1\\
1: 43:1 291:1 obj 1\\
1: 43:1 302:1 obj 1\\
1: 44:1 289:1 obj 1\\
1: 45:1 288:1 obj 1\\
2: 46:1 287:1 obj 1\\
1: 47:1 287:1 obj 1\\
1: 47:1 290:1 obj 1\\
2: 48:1 284:1 obj 1\\
1: 49:1 285:1 obj 1\\
1: 50:1 283:1 obj 1\\
1: 51:1 286:1 obj 1\\
1: 52:1 293:1 obj 1\\
1: 53:1 282:1 obj 1\\
1: 54:1 278:1 obj 1\\
2: 55:1 277:1 obj 1\\
1: 55:1 279:1 obj 1\\
1: 56:1 275:1 obj 1\\
2: 57:1 274:1 obj 1\\
1: 57:1 276:1 obj 1\\
1: 58:1 273:1 obj 1\\
1: 59:1 272:1 obj 1\\
1: 60:1 270:1 obj 1\\
1: 61:1 268:1 obj 1\\
1: 62:1 267:1 obj 1\\
1: 63:1 265:1 obj 1\\
1: 63:1 266:1 obj 1\\
1: 64:1 263:1 obj 1\\
1: 65:1 263:1 obj 1\\
2: 65:1 264:1 obj 1\\
1: 66:1 262:1 obj 1\\
1: 67:1 261:1 obj 1\\
1: 68:1 260:1 obj 1\\
1: 69:1 258:1 obj 1\\
3: 70:1 259:1 obj 1\\
1: 71:1 262:1 obj 1\\
1: 72:1 256:1 obj 1\\
1: 72:1 260:1 obj 1\\
1: 73:1 255:1 obj 1\\
1: 74:1 254:1 obj 1\\
1: 75:1 253:1 obj 1\\
1: 76:1 252:1 obj 1\\
1: 78:1 249:1 obj 1\\
1: 79:1 248:1 obj 1\\
1: 80:1 247:1 obj 1\\
1: 81:1 246:1 obj 1\\
2: 82:1 251:1 obj 1\\
1: 83:1 257:1 obj 1\\
2: 84:1 248:1 obj 1\\
1: 85:1 247:1 obj 1\\
1: 85:1 271:1 obj 1\\
1: 85:1 286:1 obj 1\\
1: 86:1 245:1 obj 1\\
1: 87:1 244:1 obj 1\\
1: 88:1 243:1 obj 1\\
1: 89:1 245:1 obj 1\\
1: 90:1 240:1 obj 1\\
1: 91:1 241:1 obj 1\\
1: 92:1 242:1 obj 1\\
1: 93:1 238:1 obj 1\\
2: 94:1 239:1 obj 1\\
1: 95:1 234:1 obj 1\\
1: 96:1 232:1 obj 1\\
2: 96:1 285:1 obj 1\\
1: 97:1 233:1 obj 1\\
1: 97:1 284:1 obj 1\\
1: 97:1 288:1 obj 1\\
1: 98:1 231:1 obj 1\\
1: 99:1 229:1 obj 1\\
1: 99:1 240:1 obj 1\\
2: 100:1 228:1 obj 1\\
1: 101:1 230:1 obj 1\\
1: 102:1 235:1 obj 1\\
1: 103:1 227:1 obj 1\\
1: 104:1 225:1 obj 1\\
2: 105:1 223:1 obj 1\\
1: 106:1 224:1 obj 1\\
1: 107:1 225:1 obj 1\\
1: 108:1 226:1 obj 1\\
1: 109:1 222:1 obj 1\\
1: 110:1 221:1 obj 1\\
1: 110:1 222:1 obj 1\\
1: 110:1 284:1 obj 1\\
1: 111:1 220:1 obj 1\\
1: 112:1 218:1 obj 1\\
2: 114:1 219:1 obj 1\\
1: 115:1 220:1 obj 1\\
1: 115:1 269:1 obj 1\\
2: 116:1 237:1 obj 1\\
1: 117:1 216:1 obj 1\\
1: 118:1 214:1 obj 1\\
1: 119:1 213:1 obj 1\\
1: 120:1 213:1 obj 1\\
1: 120:1 214:1 obj 1\\
1: 121:1 obj 1\\
1: 121:1 211:1 obj 1\\
1: 122:1 210:1 obj 1\\
2: 123:1 209:1 obj 1\\
2: 125:1 210:1 obj 1\\
1: 126:1 207:1 obj 1\\
1: 127:1 205:1 obj 1\\
1: 128:1 204:1 obj 1\\
2: 129:1 206:1 obj 1\\
2: 130:1 203:1 obj 1\\
1: 130:1 215:1 obj 1\\
2: 131:1 250:1 obj 1\\
1: 132:1 201:1 obj 1\\
1: 134:1 199:1 obj 1\\
1: 136:1 197:1 obj 1\\
1: 139:1 195:1 obj 1\\
1: 140:1 193:1 obj 1\\
1: 141:1 194:1 obj 1\\
1: 142:1 191:1 obj 1\\
1: 143:1 187:1 obj 1\\
1: 144:1 186:1 obj 1\\
1: 145:1 185:1 obj 1\\
1: 145:1 188:1 obj 1\\
1: 146:1 189:1 obj 1\\
1: 147:1 190:1 obj 1\\
1: 148:1 192:1 obj 1\\
2: 148:1 196:1 obj 1\\
1: 149:1 184:1 obj 1\\
1: 150:1 201:1 obj 1\\
1: 151:1 181:1 obj 1\\
1: 152:1 180:1 obj 1\\
1: 153:1 179:1 obj 1\\
1: 154:1 177:1 obj 1\\
1: 155:1 178:1 obj 1\\
1: 155:1 179:1 obj 1\\
1: 156:1 182:1 obj 1\\
1: 157:1 183:1 obj 1\\
1: 158:1 176:1 obj 1\\
2: 159:1 175:1 obj 1\\
1: 160:1 174:1 obj 1\\
1: 161:1 173:1 obj 1\\
1: 162:1 294:1 334:1 obj 1\\
2: 165:1 172:1 obj 1\\
1: 166:1 171:1 obj 1\\
1: 166:1 172:1 obj 1\\
1: 167:1 170:1 obj 1\\
1: 167:1 175:1 obj 1\\
1: 168:1 320:1 321:1 obj 1\\
2: 169:2 obj 1\\
1: 162:1 208:1 obj 1\\
1: 124:1 225:1 obj 1\\
1: 135:1 202:1 obj 1\\
1: 137:1 198:1 obj 1\\
1: 138:1 200:1 obj 1\\
1: 77:1 302:1 obj 1\\
1: 113:1 280:1 obj 1\\
1: 9:1 333:1 obj 1\\
1: 10:1 335:1 obj 1\\
1: 15:1 332:1 obj 1\\
1: 35:1 327:1 obj 1\\
1: 150:1 266:1 obj 1\\
1: 146:1 226:1 obj 1\\
1: 146:1 217:1 obj 1\\
1: 146:1 215:1 obj 1\\
1: 145:1 296:1 obj 1\\
1: 143:1 199:1 obj 1\\
1: 142:1 319:1 obj 1\\
1: 142:1 311:1 obj 1\\
1: 140:1 236:1 obj 1\\
1: 134:1 212:1 obj 1\\
1: 134:1 295:1 obj 1\\
1: 133:1 272:1 obj 1\\
1: 131:1 267:1 obj 1\\
1: 151:1 322:1 323:1 obj 1\\
1: 126:1 293:1 obj 1\\
3: 126:1 281:1 obj 1\\
1: 163:1 183:1 obj 1\\
2: 123:1 280:1 obj 1\\
1: 164:1 269:1 obj 1\\



The last LP solution 


File: BPP_500_1000_0.2_0.8_4.txt  Instance No. 1
Wed Feb 25 13:44:08 2015

LP solution: lpval=252 lpbnd=252

1: 0:1 obj 1\\
2: 1:1 340:1 obj 1\\
1: 2:1 339:1 obj 1\\
1: 3:1 obj 1\\
1: 3:1 341:1 obj 1\\
1: 4:1 338:1 obj 1\\
2: 5:1 337:1 obj 1\\
1: 6:1 obj 1\\
1: 7:1 336:1 obj 1\\
1: 8:1 obj 1\\
2: 11:1 331:1 obj 1\\
1: 12:1 329:1 obj 1\\
2: 13:1 328:1 obj 1\\
1: 14:1 330:1 obj 1\\
1: 16:1 326:1 obj 1\\
1: 17:1 327:1 obj 1\\
1: 18:1 324:1 obj 1\\
1: 18:1 325:1 obj 1\\
1: 19:1 333:1 obj 1\\
1: 20:1 322:1 obj 1\\
1: 21:1 317:1 obj 1\\
1: 22:1 318:1 obj 1\\
1: 23:1 316:1 obj 1\\
1: 24:1 315:1 obj 1\\
1: 25:1 314:1 obj 1\\
1: 26:1 313:1 obj 1\\
1: 27:1 obj 1\\
1: 27:1 312:1 obj 1\\
1: 28:1 obj 1\\
1: 28:1 310:1 obj 1\\
1: 29:1 309:1 obj 1\\
1: 30:1 308:1 obj 1\\
2: 31:1 306:1 obj 1\\
1: 31:1 309:1 obj 1\\
1: 32:1 305:1 obj 1\\
1: 32:1 309:1 obj 1\\
1: 33:1 307:1 obj 1\\
1: 34:1 303:1 obj 1\\
1: 36:1 300:1 obj 1\\
1: 37:1 299:1 obj 1\\
1: 37:1 300:1 obj 1\\
1: 38:1 301:1 obj 1\\
1: 38:1 304:1 obj 1\\
2: 39:1 304:1 obj 1\\
1: 40:1 297:1 obj 1\\
1: 41:1 298:1 obj 1\\
1: 42:1 292:1 obj 1\\
1: 43:1 291:1 obj 1\\
1: 43:1 302:1 obj 1\\
1: 44:1 289:1 obj 1\\
1: 45:1 288:1 obj 1\\
2: 46:1 287:1 obj 1\\
1: 47:1 287:1 obj 1\\
1: 47:1 290:1 obj 1\\
2: 48:1 284:1 obj 1\\
1: 49:1 285:1 obj 1\\
1: 50:1 283:1 obj 1\\
1: 51:1 286:1 obj 1\\
1: 52:1 293:1 obj 1\\
1: 53:1 282:1 obj 1\\
1: 54:1 278:1 obj 1\\
2: 55:1 277:1 obj 1\\
1: 55:1 279:1 obj 1\\
1: 56:1 275:1 obj 1\\
2: 57:1 274:1 obj 1\\
1: 57:1 276:1 obj 1\\
1: 58:1 273:1 obj 1\\
1: 59:1 272:1 obj 1\\
1: 60:1 270:1 obj 1\\
1: 61:1 268:1 obj 1\\
1: 62:1 267:1 obj 1\\
1: 63:1 265:1 obj 1\\
1: 63:1 266:1 obj 1\\
1: 64:1 263:1 obj 1\\
1: 65:1 263:1 obj 1\\
2: 65:1 264:1 obj 1\\
1: 66:1 262:1 obj 1\\
1: 67:1 261:1 obj 1\\
1: 68:1 260:1 obj 1\\
1: 69:1 258:1 obj 1\\
3: 70:1 259:1 obj 1\\
1: 71:1 262:1 obj 1\\
1: 72:1 256:1 obj 1\\
1: 72:1 260:1 obj 1\\
1: 73:1 255:1 obj 1\\
1: 74:1 254:1 obj 1\\
1: 75:1 253:1 obj 1\\
1: 76:1 252:1 obj 1\\
1: 78:1 249:1 obj 1\\
1: 79:1 248:1 obj 1\\
1: 80:1 247:1 obj 1\\
1: 81:1 246:1 obj 1\\
2: 82:1 251:1 obj 1\\
1: 83:1 257:1 obj 1\\
2: 84:1 248:1 obj 1\\
1: 85:1 247:1 obj 1\\
1: 85:1 271:1 obj 1\\
1: 85:1 286:1 obj 1\\
1: 86:1 245:1 obj 1\\
1: 87:1 244:1 obj 1\\
1: 88:1 243:1 obj 1\\
1: 89:1 245:1 obj 1\\
1: 90:1 240:1 obj 1\\
1: 91:1 241:1 obj 1\\
1: 92:1 242:1 obj 1\\
1: 93:1 238:1 obj 1\\
2: 94:1 239:1 obj 1\\
1: 95:1 234:1 obj 1\\
1: 96:1 232:1 obj 1\\
2: 96:1 285:1 obj 1\\
1: 97:1 233:1 obj 1\\
1: 97:1 284:1 obj 1\\
1: 97:1 288:1 obj 1\\
1: 98:1 231:1 obj 1\\
1: 99:1 229:1 obj 1\\
1: 99:1 240:1 obj 1\\
2: 100:1 228:1 obj 1\\
1: 101:1 230:1 obj 1\\
1: 102:1 235:1 obj 1\\
1: 103:1 227:1 obj 1\\
1: 104:1 225:1 obj 1\\
2: 105:1 223:1 obj 1\\
1: 106:1 224:1 obj 1\\
1: 107:1 225:1 obj 1\\
1: 108:1 226:1 obj 1\\
1: 109:1 222:1 obj 1\\
1: 110:1 221:1 obj 1\\
1: 110:1 222:1 obj 1\\
1: 110:1 284:1 obj 1\\
1: 111:1 220:1 obj 1\\
1: 112:1 218:1 obj 1\\
2: 114:1 219:1 obj 1\\
1: 115:1 220:1 obj 1\\
1: 115:1 269:1 obj 1\\
2: 116:1 237:1 obj 1\\
1: 117:1 216:1 obj 1\\
1: 118:1 214:1 obj 1\\
1: 119:1 213:1 obj 1\\
1: 120:1 213:1 obj 1\\
1: 120:1 214:1 obj 1\\
1: 121:1 obj 1\\
1: 121:1 211:1 obj 1\\
1: 122:1 210:1 obj 1\\
2: 123:1 209:1 obj 1\\
2: 125:1 210:1 obj 1\\
1: 126:1 207:1 obj 1\\
1: 127:1 205:1 obj 1\\
1: 128:1 204:1 obj 1\\
2: 129:1 206:1 obj 1\\
2: 130:1 203:1 obj 1\\
1: 130:1 215:1 obj 1\\
2: 131:1 250:1 obj 1\\
1: 132:1 201:1 obj 1\\
1: 134:1 199:1 obj 1\\
1: 136:1 197:1 obj 1\\
1: 139:1 195:1 obj 1\\
1: 140:1 193:1 obj 1\\
1: 141:1 194:1 obj 1\\
1: 142:1 191:1 obj 1\\
1: 143:1 187:1 obj 1\\
1: 144:1 186:1 obj 1\\
1: 145:1 185:1 obj 1\\
1: 145:1 188:1 obj 1\\
1: 146:1 189:1 obj 1\\
1: 147:1 190:1 obj 1\\
1: 148:1 192:1 obj 1\\
2: 148:1 196:1 obj 1\\
1: 149:1 184:1 obj 1\\
1: 150:1 201:1 obj 1\\
1: 151:1 181:1 obj 1\\
1: 152:1 180:1 obj 1\\
1: 153:1 179:1 obj 1\\
1: 154:1 177:1 obj 1\\
1: 155:1 178:1 obj 1\\
1: 155:1 179:1 obj 1\\
1: 156:1 182:1 obj 1\\
1: 157:1 183:1 obj 1\\
1: 158:1 176:1 obj 1\\
2: 159:1 175:1 obj 1\\
1: 160:1 174:1 obj 1\\
1: 161:1 173:1 obj 1\\
1: 162:1 294:1 334:1 obj 1\\
2: 165:1 172:1 obj 1\\
1: 166:1 171:1 obj 1\\
1: 166:1 172:1 obj 1\\
1: 167:1 170:1 obj 1\\
1: 167:1 175:1 obj 1\\
1: 168:1 320:1 321:1 obj 1\\
2: 169:2 obj 1\\
1: 162:1 208:1 obj 1\\
1: 124:1 225:1 obj 1\\
1: 135:1 202:1 obj 1\\
1: 137:1 198:1 obj 1\\
1: 138:1 200:1 obj 1\\
1: 77:1 302:1 obj 1\\
1: 113:1 280:1 obj 1\\
1: 9:1 333:1 obj 1\\
1: 10:1 335:1 obj 1\\
1: 15:1 332:1 obj 1\\
1: 35:1 327:1 obj 1\\
1: 150:1 266:1 obj 1\\
1: 146:1 226:1 obj 1\\
1: 146:1 217:1 obj 1\\
1: 146:1 215:1 obj 1\\
1: 145:1 296:1 obj 1\\
1: 143:1 199:1 obj 1\\
1: 142:1 319:1 obj 1\\
1: 142:1 311:1 obj 1\\
1: 140:1 236:1 obj 1\\
1: 134:1 212:1 obj 1\\
1: 134:1 295:1 obj 1\\
1: 133:1 272:1 obj 1\\
1: 131:1 267:1 obj 1\\
1: 151:1 322:1 323:1 obj 1\\
1: 126:1 293:1 obj 1\\
3: 126:1 281:1 obj 1\\
1: 163:1 183:1 obj 1\\
2: 123:1 280:1 obj 1\\
1: 164:1 269:1 obj 1\\



